NAME : optical-integer.-20247574.tour
COMMENT : Length = -20247574
COMMENT : Found by LKH [Keld Helsgaun] Wed May 19 13:19:59 2021
TYPE : TOUR
DIMENSION : 174
TOUR_SECTION
1
75
145
23
64
95
43
58
94
27
21
91
74
155
158
135
116
125
124
123
128
122
121
129
106
110
101
117
120
102
113
114
103
108
107
109
104
105
112
111
100
115
118
119
126
137
165
139
167
138
127
140
161
166
164
160
162
65
169
87
99
52
131
54
86
136
67
174
53
48
55
97
6
26
42
33
80
8
63
92
154
41
83
73
24
19
22
9
7
10
28
56
146
143
142
147
25
49
46
59
17
76
3
130
134
132
133
159
141
173
157
163
144
148
34
47
93
96
11
90
89
60
32
61
20
40
29
36
78
62
150
68
69
13
72
50
51
88
18
30
66
82
79
15
37
5
39
2
77
152
153
151
45
168
172
171
170
57
149
12
84
81
98
85
31
71
70
16
38
4
44
35
14
156
-1
EOF
